solution status: optimal solution found
objective value:                                    0
one.ctrl_s[3].hole_y                               17 	(obj:0)
one.ctrl_s[3].hole_z                               23 	(obj:0)
one.ctrl_s[3].flush_y                              17 	(obj:0)
one.ctrl_s[3].flush_z                              22 	(obj:0)
$_7__7_y                                           18 	(obj:0)
$_7__7_z                                           22 	(obj:0)
one.thingy.devices[0].thingy.column_lower_y                   19 	(obj:0)
one.thingy.devices[0].thingy.column_lower_z                   23 	(obj:0)
$_6__7_y                                            2 	(obj:0)
$_6__7_z                                           25 	(obj:0)
